Traveling Salesman Problem/TSP_generados/Aleatorio1620390936_9.tsp
NAME: Aleatorio1620390936_9.tsp
COMMENT: Randomly generated scenario
TYPE: TSP
DIMENSION: 9
EDGE_WEIGHT_TYPE: ATT
NODE_COORD_SECTION
1 9.7 25.25
2 32.98 3.76
3 6.45 35.18
4 21.83 21.95
5 9.31 35.1
6 42.1 12.02
7 18.82 25.59
8 47.74 8.18
9 33.83 22.05
