Traveling Salesman Problem/TSP_generados/Aleatorio1620390936_9.opt.tour
NAME: Aleatorio1620390936_9.opt.tour
COMMENT: Optimal solution for Aleatorio1620390936_9 (110.39529903118208)
TYPE: TOUR
DIMENSION: 9
TOUR_SECTION
1 3 5 7 4 9 6 8 2
-1
EOF
